NAME: random98
TYPE: TSP
DIMENSION: 98
EDGE_WEIGHT_TYPE: EXPLICIT
EDGE_WEIGHT_FORMAT: FULL_MATRIX
EDGE_WEIGHT_SECTION
0 123 123 38 123 123 34 44 34 26 27 28 123 123 15 9 21 123 123 123 29 123 123 123 123 11 34 123 123 123 123 123 31 13 123 123 123 123 123 42 39 15 25 123 123 123 33 33 51 19 31 123 123 123 26 21 40 123 123 123 36 26 33 123 123 26 31 14 123 6 123 17 123 34 123 123 16 31 123 123 18 19 123 52 123 123 123 123 19 123 123 123 25 123 123 123 123 24
123 0 123 123 123 123 123 123 14 123 123 123 70 11 123 123 28 23 34 22 123 123 123 123 123 123 123 123 123 123 123 123 123 123 123 123 123 30 24 123 123 123 123 43 123 123 38 123 123 123 123 21 123 123 123 123 33 123 123 14 21 22 123 123 32 123 123 123 13 47 123 123 16 19 123 31 123 123 123 123 33 123 123 123 23 123 123 123 39 123 123 46 30 123 123 17 123 34
123 123 0 30 16 123 47 123 123 56 26 123 123 123 123 123 123 123 123 123 77 9 43 8 32 123 21 25 23 123 26 123 25 37 19 123 24 123 123 23 31 123 29 123 21 26 123 50 44 32 25 123 123 30 25 123 123 30 37 123 123 123 31 82 123 123 23 37 123 123 123 123 123 123 9 123 123 25 34 19 45 123 123 48 123 123 123 123 123 41 8 123 43 40 123 123 123 123
38 123 30 0 32 3 123 123 30 123 123 123 123 123 123 123 25 123 23 123 123 33 123 23 123 123 12 123 23 123 123 19 10 28 11 7 8 123 123 123 123 123 16 123 27 16 123 123 123 25 123 123 123 123 23 123 7 123 123 123 19 32 123 123 123 123 123 123 28 42 1 123 123 22 23 10 123 11 123 123 24 123 23 123 20 123 21 123 47 123 23 123 18 123 123 123 23 123
123 123 16 32 0 123 123 123 123 123 123 123 123 123 123 123 123 123 123 123 123 9 27 13 16 123 29 39 12 123 9 30 33 123 24 29 24 123 123 40 123 123 123 123 8 19 123 123 123 123 123 123 32 123 38 123 123 14 123 123 123 123 123 123 123 123 39 123 123 123 32 123 123 123 12 123 123 123 49 3 123 123 17 64 123 123 123 123 123 57 12 123 123 24 24 123 28 123
123 123 123 3 123 0 123 123 123 123 123 123 123 123 123 123 25 123 21 123 123 123 123 25 123 123 15 123 23 123 123 17 13 123 13 5 9 123 25 123 123 123 18 123 123 16 123 123 123 123 123 123 123 123 123 123 5 123 123 123 17 123 123 123 123 123 123 123 26 123 2 123 123 20 25 7 123 14 123 123 24 123 23 123 17 22 19 29 123 123 123 34 18 123 123 33 21 123
34 123 47 123 123 123 0 70 123 15 25 40 123 123 123 28 123 123 123 123 43 56 123 123 78 33 123 33 123 123 123 123 123 31 123 123 123 123 123 25 17 123 40 123 123 123 123 4 19 32 24 123 123 20 32 22 123 123 21 123 123 123 16 49 123 44 25 28 123 39 123 38 123 123 123 123 123 123 23 123 47 32 123 19 123 123 123 123 123 21 123 123 123 123 123 123 123 123
44 123 123 123 123 123 70 0 51 56 123 33 123 58 34 44 50 66 123 37 31 123 123 123 123 38 123 96 123 123 123 123 123 123 123 123 123 123 123 123 123 29 123 16 123 123 20 67 89 123 123 57 123 123 123 49 123 123 123 62 123 45 123 26 29 28 123 123 123 38 123 32 42 123 123 123 28 123 123 123 51 38 123 90 123 123 123 123 28 91 123 123 123 123 123 123 123 28
34 14 123 30 123 123 123 51 0 123 123 123 123 24 45 43 14 36 34 15 123 123 123 123 123 43 123 123 123 123 123 123 33 35 123 123 123 41 27 123 123 32 32 39 123 123 31 123 123 123 123 32 123 123 123 123 25 123 123 28 12 9 123 123 32 123 123 123 6 33 123 123 16 9 123 25 34 33 123 123 19 123 123 123 21 123 123 123 28 123 123 123 17 123 123 25 123 24
26 123 56 123 123 123 15 56 123 0 31 25 123 123 23 18 47 123 123 123 28 65 123 123 87 21 123 47 123 123 123 123 123 30 123 123 123 123 123 37 30 36 42 123 123 123 123 11 34 33 31 123 123 33 36 8 123 123 35 123 123 123 27 34 123 29 33 27 123 29 123 25 123 123 123 123 35 123 38 123 43 18 123 34 123 123 123 123 42 36 123 123 123 123 123 123 123 123
27 123 26 123 123 123 25 123 123 31 0 49 123 123 123 28 123 123 123 123 52 35 123 28 123 34 20 27 123 123 123 123 21 16 25 123 123 123 123 15 16 123 17 123 123 123 123 27 32 12 4 123 123 18 8 33 123 123 27 123 123 123 11 123 123 123 4 13 123 33 123 123 123 123 123 123 123 20 26 123 30 39 123 35 123 123 123 123 123 123 123 123 32 123 123 123 123 123
28 123 123 123 123 123 40 33 123 25 49 0 123 123 13 22 123 123 123 123 3 123 123 123 123 17 123 71 123 123 123 123 123 40 123 123 123 123 123 123 54 25 123 43 123 123 37 37 59 45 123 123 123 123 123 19 123 123 123 123 123 123 49 9 123 6 123 39 123 25 123 11 123 123 123 123 22 123 123 123 123 10 123 59 123 123 123 123 29 61 123 123 123 123 123 123 123 123
123 70 123 123 123 123 123 123 123 123 123 123 0 79 123 123 123 85 36 123 123 40 12 123 21 123 123 70 25 24 24 28 123 123 123 123 123 56 46 123 123 123 123 123 26 29 123 123 123 123 123 89 8 123 123 123 123 18 123 80 123 123 123 123 123 123 123 123 63 123 123 123 123 123 123 45 123 123 123 123 123 123 22 123 48 28 33 25 123 123 123 29 123 12 7 56 23 123
123 11 123 123 123 123 123 58 24 123 123 123 79 0 123 123 38 12 123 27 123 123 123 123 123 123 123 123 123 123 123 123 123 123 123 123 123 32 33 123 123 123 123 42 123 123 40 123 123 123 123 10 123 123 123 123 123 123 123 4 32 31 123 123 30 123 123 123 24 123 123 123 18 30 123 123 123 123 123 123 123 123 123 123 33 123 123 123 123 123 123 53 123 123 123 24 123 39
15 123 123 123 123 123 123 34 45 23 123 13 123 123 0 11 34 123 123 37 14 123 123 123 123 5 123 123 123 123 123 123 123 28 123 123 123 123 123 123 123 15 40 39 123 123 31 123 123 123 123 123 123 123 123 16 123 123 123 123 123 36 123 19 46 11 123 27 123 12 123 2 123 47 123 123 13 123 123 123 32 7 123 123 123 123 123 123 20 123 123 123 39 123 123 123 123 26
9 123 123 123 123 123 28 44 43 18 28 22 123 123 11 0 30 123 123 123 24 123 123 123 123 6 123 52 123 123 123 123 123 18 123 123 123 123 123 41 36 19 31 123 123 123 37 26 46 23 31 123 123 123 29 12 123 123 123 123 123 34 31 29 123 22 32 17 123 11 123 13 123 43 123 123 19 123 123 123 27 12 123 47 123 123 123 123 24 47 123 123 34 123 123 123 123 30
21 28 123 25 123 25 123 50 14 47 123 123 123 38 34 30 0 123 123 20 123 123 123 123 123 32 27 123 123 123 123 123 23 21 32 123 32 123 123 123 123 24 20 42 123 123 32 123 123 23 123 46 123 123 28 42 22 123 123 42 15 9 123 123 39 43 123 24 17 22 25 35 27 13 123 24 26 23 123 123 4 40 123 123 26 123 123 123 23 123 123 123 7 123 123 36 123 22
123 23 123 123 123 123 123 66 36 123 123 123 85 12 123 123 123 0 50 38 123 123 96 123 123 123 123 123 123 123 123 123 123 123 123 123 123 32 40 123 123 123 123 50 123 123 49 123 123 123 123 10 77 123 123 123 123 123 123 9 123 123 123 123 37 123 123 123 35 123 123 123 29 123 123 123 123 123 123 123 123 123 123 123 43 123 123 60 123 123 123 57 123 93 85 30 123 123
123 34 123 23 123 21 123 123 34 123 123 123 36 123 123 123 123 50 0 123 123 123 46 123 123 123 123 123 123 13 123 12 123 123 123 19 25 27 10 123 123 123 123 123 123 23 123 123 123 123 123 123 28 123 123 123 18 123 123 44 23 123 123 123 123 123 123 123 28 123 23 123 123 26 123 16 123 123 123 123 123 123 26 123 13 9 4 13 123 123 123 15 32 44 35 20 16 123
123 22 123 123 123 123 123 37 15 123 123 123 123 27 37 123 20 38 123 0 123 123 123 123 123 123 123 123 123 123 123 123 123 123 123 123 123 123 123 123 123 23 123 25 123 123 17 123 123 123 123 31 123 123 123 123 123 123 123 31 26 11 123 47 19 42 123 123 20 28 123 37 10 23 123 123 25 123 123 123 23 123 123 123 35 123 123 123 18 123 123 123 26 123 123 38 123 12
29 123 77 123 123 123 43 31 123 28 52 3 123 123 14 24 123 123 123 123 0 86 123 123 106 18 123 73 123 123 123 123 123 42 123 123 123 123 123 62 56 25 123 41 123 123 36 39 62 47 123 123 123 123 123 21 123 123 63 123 123 123 52 6 123 5 123 41 123 26 123 13 123 123 123 123 23 123 66 123 123 12 123 62 123 123 123 123 30 64 123 123 123 123 123 123 123 123
123 123 9 33 9 123 56 123 123 65 35 123 40 123 123 123 123 123 123 123 86 0 35 10 23 123 27 30 19 123 17 123 31 123 23 123 26 123 123 32 40 123 35 123 16 25 123 59 52 40 34 123 123 38 33 123 123 23 44 123 123 123 39 91 123 123 32 123 123 123 123 123 123 123 10 123 123 31 41 11 123 123 25 55 123 123 123 123 123 48 10 123 123 32 33 123 123 123
123 123 43 123 27 123 123 123 123 123 123 123 12 123 123 123 123 96 46 123 123 35 0 39 13 123 123 65 123 34 18 123 123 123 123 123 123 68 56 67 123 123 123 123 25 123 123 123 123 123 123 123 20 123 123 123 123 13 123 90 123 123 123 123 123 123 123 123 123 123 123 123 123 123 123 123 123 123 76 24 123 123 26 90 123 123 123 36 123 83 38 40 123 3 11 66 31 123
123 123 8 23 13 25 123 123 123 123 28 123 123 123 123 123 123 123 123 123 123 10 39 0 28 123 18 32 16 123 22 30 21 36 13 23 17 123 123 29 36 123 26 123 15 18 123 123 123 31 28 123 123 36 25 123 31 26 123 123 123 123 35 123 123 123 26 123 123 123 24 123 123 123 1 123 123 22 40 15 42 123 21 54 123 123 123 123 123 48 1 123 38 36 123 123 30 123
123 123 32 123 16 123 78 123 123 87 123 123 21 123 123 123 123 123 123 123 106 23 13 28 0 123 44 53 20 123 6 123 123 123 37 123 123 71 123 55 63 123 123 123 17 28 123 82 74 123 56 123 26 61 53 123 123 6 67 123 123 123 62 111 123 123 54 123 123 123 123 123 123 123 27 123 123 123 63 13 123 123 22 78 123 123 123 123 123 71 27 45 123 10 15 123 31 123
11 123 123 123 123 123 33 38 43 21 34 17 123 123 5 6 32 123 123 123 18 123 123 123 123 0 123 123 123 123 123 123 123 23 123 123 123 123 123 123 123 15 36 123 123 123 33 31 123 29 123 123 123 123 123 14 123 123 123 123 123 34 37 123 123 16 123 23 123 10 123 7 123 45 123 123 14 123 123 123 29 8 123 52 123 123 123 123 21 123 123 123 36 123 123 123 123 27
34 123 21 12 29 15 123 123 123 123 20 123 123 123 123 123 27 123 123 123 123 27 123 18 44 123 0 38 25 123 38 123 4 21 7 17 12 123 123 30 34 123 9 123 27 21 123 123 123 16 22 123 123 36 12 123 19 123 123 123 28 123 30 123 123 123 20 23 123 38 12 123 123 29 18 123 123 4 42 31 24 123 123 53 123 123 123 123 123 49 18 123 21 123 123 123 123 123
123 123 25 123 39 123 33 96 123 47 27 71 70 123 123 52 123 123 123 123 73 30 65 32 53 123 38 0 123 123 47 123 41 123 39 123 123 123 123 12 17 123 41 123 45 123 123 37 22 38 23 123 123 14 33 52 123 53 15 123 123 123 21 79 123 73 23 40 123 123 123 123 123 123 33 123 123 41 11 42 123 123 53 25 123 123 123 123 123 19 33 123 123 62 63 123 123 123
123 123 23 23 12 23 123 123 123 123 123 123 25 123 123 123 123 123 123 123 123 19 123 16 20 123 25 123 0 25 16 18 28 123 19 19 16 123 123 123 123 123 123 123 4 8 123 123 123 123 123 123 24 123 123 123 123 15 123 123 123 123 123 123 123 123 123 123 123 123 23 123 123 123 15 28 123 123 123 12 123 123 5 123 123 23 26 28 123 123 15 34 123 23 19 123 16 123
123 123 123 123 123 123 123 123 123 123 123 123 24 123 123 123 123 123 13 123 123 123 34 123 123 123 123 123 25 0 123 11 123 123 123 23 28 34 23 123 123 123 123 123 29 21 123 123 123 123 123 123 15 123 123 123 123 32 123 123 123 123 123 123 123 123 123 123 123 123 123 123 123 123 38 25 123 123 123 123 123 123 20 123 26 6 11 3 123 123 123 9 123 32 24 123 9 123
123 123 26 123 9 123 123 123 123 123 123 123 24 123 123 123 123 123 123 123 123 17 18 22 6 123 38 47 16 123 0 123 123 123 32 123 30 123 123 49 123 123 123 123 12 24 123 123 123 123 123 123 28 123 47 123 123 6 123 123 123 123 123 123 123 123 48 123 123 123 123 123 123 123 21 123 123 123 58 7 123 123 18 72 123 123 123 123 123 66 21 123 123 15 18 123 29 123
123 123 123 19 30 17 123 123 123 123 123 123 28 123 123 123 123 123 12 123 123 123 123 30 123 123 123 123 18 11 123 0 123 123 24 12 17 123 22 123 123 123 123 123 22 12 123 123 123 123 123 123 22 123 123 123 18 29 123 123 28 123 123 123 123 123 123 123 35 123 18 123 123 31 29 16 123 123 123 123 123 123 14 123 21 6 8 13 123 123 29 19 33 123 26 32 5 123
31 123 25 10 33 13 123 123 33 123 21 123 123 123 123 123 23 123 123 123 123 31 123 21 123 123 4 41 28 123 123 123 0 19 9 16 13 123 123 33 123 123 6 123 30 22 123 123 123 15 123 123 123 123 13 123 16 123 123 123 24 32 123 123 123 123 22 123 33 36 11 123 123 26 22 19 123 1 123 123 21 123 123 123 28 123 123 123 44 123 22 123 17 123 123 123 123 123
13 123 37 28 123 123 31 123 35 30 16 40 123 123 28 18 21 123 123 123 42 123 123 36 123 23 21 123 123 123 123 123 19 0 27 123 123 123 123 31 30 28 13 123 123 123 123 32 45 6 19 123 123 123 12 28 31 123 123 123 32 29 24 123 123 123 19 4 123 19 123 123 123 31 123 123 29 18 123 123 16 30 123 47 123 123 123 123 31 123 123 123 20 123 123 123 123 123
123 123 19 11 24 13 123 123 123 123 25 123 123 123 123 123 32 123 123 123 123 23 123 13 37 123 7 39 19 123 32 24 9 27 0 13 7 123 123 33 123 123 15 123 21 15 123 123 123 23 123 123 123 123 18 123 18 33 123 123 29 123 123 123 123 123 25 123 123 123 11 123 123 32 13 20 123 10 123 26 29 123 22 123 123 123 123 123 123 123 13 123 25 123 123 123 26 123
123 123 123 7 29 5 123 123 123 123 123 123 123 123 123 123 123 123 19 123 123 123 123 23 123 123 17 123 19 23 123 12 16 123 13 0 6 123 26 123 123 123 123 123 23 11 123 123 123 123 123 123 32 123 123 123 9 33 123 123 22 123 123 123 123 123 123 123 30 123 6 123 123 25 23 10 123 123 123 123 123 123 18 123 19 18 16 25 123 123 23 31 23 123 34 34 16 123
123 123 24 8 24 9 123 123 123 123 123 123 123 123 123 123 32 123 25 123 123 26 123 17 123 123 12 123 16 28 30 17 13 123 7 6 0 123 123 123 123 123 19 123 19 9 123 123 123 123 123 123 34 123 25 123 14 31 123 123 26 123 123 123 123 123 123 123 123 123 8 123 123 29 16 15 123 14 123 25 31 123 17 123 25 23 22 123 123 123 17 123 25 123 33 123 19 123
123 30 123 123 123 123 123 123 41 123 123 123 56 32 123 123 123 32 27 123 123 123 68 123 71 123 123 123 123 34 123 123 123 123 123 123 123 0 20 123 123 123 123 73 123 123 123 123 123 123 123 40 48 123 123 123 123 66 123 30 38 123 123 123 62 123 123 123 35 123 123 123 46 39 123 38 123 123 123 123 123 123 52 123 29 34 31 32 123 123 123 27 123 66 58 16 41 123
123 24 123 123 123 25 123 123 27 123 123 123 46 33 123 123 123 40 10 123 123 123 56 123 123 123 123 123 123 23 123 22 123 123 123 26 123 20 0 123 123 123 123 123 123 123 123 123 123 123 123 43 38 123 123 123 21 123 123 33 20 123 123 123 123 123 123 123 21 123 123 123 39 22 123 18 123 123 123 123 123 123 36 123 10 19 14 22 123 123 123 21 31 54 46 10 26 123
42 123 23 123 40 123 25 123 123 37 15 123 123 123 123 41 123 123 123 123 62 32 67 29 55 123 30 12 123 123 49 123 33 31 33 123 123 123 123 0 8 123 31 123 123 123 123 29 22 27 12 123 123 7 22 123 123 54 14 123 123 123 10 68 123 123 12 28 123 123 123 123 123 123 31 123 123 32 12 42 123 123 123 25 123 123 123 123 123 19 30 123 123 64 123 123 123 123
39 123 31 123 123 123 17 123 123 30 16 54 123 123 123 36 123 123 123 123 56 40 123 36 63 123 34 17 123 123 123 123 123 30 123 123 123 123 123 8 0 123 123 123 123 123 123 21 16 27 13 123 123 4 24 35 123 123 11 123 123 123 6 62 123 123 14 27 123 123 123 123 123 123 123 123 123 123 11 123 123 123 123 19 123 123 123 123 123 15 123 123 123 123 123 123 123 123
15 123 123 123 123 123 123 29 32 36 123 25 123 123 15 19 24 123 123 23 25 123 123 123 123 15 123 123 123 123 123 123 123 28 123 123 123 123 123 123 123 0 37 28 123 123 18 123 123 123 123 123 123 123 123 29 123 123 123 123 123 23 123 27 33 21 123 29 123 10 123 15 123 36 123 123 2 123 123 123 24 21 123 123 123 123 123 123 5 123 123 123 31 123 123 123 123 11
25 123 29 16 123 18 40 123 32 42 17 123 123 123 40 31 20 123 123 123 123 35 123 26 123 36 9 41 123 123 123 123 6 13 15 123 19 123 123 31 123 37 0 123 123 123 123 123 123 9 21 123 123 123 9 123 20 123 123 123 25 30 28 123 123 123 19 15 33 30 16 123 123 26 26 23 39 6 123 123 17 123 123 123 32 123 123 123 39 123 27 123 16 123 123 123 123 123
123 43 123 123 123 123 123 16 39 123 123 43 123 42 39 123 42 50 123 25 41 123 123 123 123 123 123 123 123 123 123 123 123 123 123 123 123 73 123 123 123 28 123 0 123 123 10 123 123 123 123 40 123 123 123 123 123 123 123 45 123 34 123 39 13 37 123 123 123 37 123 38 27 123 123 123 28 123 123 123 123 123 123 94 123 123 123 123 24 123 123 123 123 123 123 60 123 21
123 123 21 27 8 123 123 123 123 123 123 123 26 123 123 123 123 123 123 123 123 16 25 15 17 123 27 45 4 29 12 22 30 123 21 23 19 123 123 123 123 123 123 123 0 12 123 123 123 123 123 123 25 123 123 123 123 12 123 123 123 123 123 123 123 123 123 123 123 123 27 123 123 123 14 123 123 123 123 8 123 123 9 123 123 27 123 31 123 123 14 38 123 21 19 123 20 123
123 123 26 16 19 16 123 123 123 123 123 123 29 123 123 123 123 123 23 123 123 25 123 18 28 123 21 123 8 21 24 12 22 123 15 11 9 123 123 123 123 123 123 123 12 0 123 123 123 123 123 123 25 123 123 123 20 23 123 123 32 123 123 123 123 123 123 123 123 123 16 123 123 123 17 20 123 123 123 20 123 123 8 123 28 18 19 24 123 123 17 30 33 30 24 123 12 123
33 38 123 123 123 123 123 20 31 123 123 37 123 40 31 37 32 49 123 17 36 123 123 123 123 33 123 123 123 123 123 123 123 123 123 123 123 123 123 123 123 18 123 10 123 123 0 123 123 123 123 40 123 123 123 123 123 123 123 44 123 25 123 35 16 32 123 123 37 27 123 30 22 39 123 123 19 123 123 123 34 37 123 84 123 123 123 123 13 123 123 123 39 123 123 123 123 10
33 123 50 123 123 123 4 67 123 11 27 37 123 123 123 26 123 123 123 123 39 59 123 123 82 31 123 37 123 123 123 123 123 32 123 123 123 123 123 29 21 123 123 123 123 123 123 0 23 33 27 123 123 24 123 18 123 123 25 123 123 123 20 45 123 40 123 28 123 37 123 35 123 123 123 123 123 123 28 123 123 29 123 23 123 123 123 123 123 25 123 123 123 123 123 123 123 123
51 123 44 123 123 123 19 89 123 34 32 59 123 123 123 46 123 123 123 123 62 52 123 123 74 123 123 22 123 123 123 123 123 45 123 123 123 123 123 22 16 123 123 123 123 123 123 23 0 43 29 123 123 15 123 41 123 123 7 123 123 123 21 68 123 63 30 41 123 123 123 123 123 123 123 123 123 123 11 123 123 123 123 3 123 123 123 123 123 3 123 123 123 123 123 123 123 123
19 123 32 25 123 123 32 123 123 33 12 45 123 123 123 23 23 123 123 123 47 40 123 31 123 29 16 38 123 123 123 123 15 6 23 123 123 123 123 27 27 123 9 123 123 123 123 33 43 0 15 123 123 123 7 32 29 123 123 123 32 123 22 123 123 123 15 7 123 25 123 123 123 32 123 123 123 14 123 123 19 35 123 45 123 123 123 123 123 123 123 123 21 123 123 123 123 123
31 123 25 123 123 123 24 123 123 31 4 123 123 123 123 31 123 123 123 123 123 34 123 28 56 123 22 23 123 123 123 123 123 19 123 123 123 123 123 12 13 123 21 123 123 123 123 27 29 15 0 123 123 15 12 123 123 123 23 123 123 123 8 123 123 123 2 17 123 123 123 123 123 123 123 123 123 123 22 123 123 123 123 32 123 123 123 123 123 28 123 123 123 123 123 123 123 123
123 21 123 123 123 123 123 57 32 123 123 123 89 10 123 123 46 10 123 31 123 123 123 123 123 123 123 123 123 123 123 123 123 123 123 123 123 40 43 123 123 123 123 40 123 123 40 123 123 123 123 0 123 123 123 123 123 123 123 10 123 37 123 75 27 71 123 123 33 123 123 123 21 40 123 123 55 123 123 123 123 123 123 123 44 123 123 123 48 123 123 62 123 123 123 33 123 42
123 123 123 123 32 123 123 123 123 123 123 123 8 123 123 123 123 77 28 123 123 123 20 123 26 123 123 123 24 15 28 22 123 123 123 32 34 48 38 123 123 123 123 123 25 25 123 123 123 123 123 123 0 123 123 123 123 22 123 71 123 123 123 123 123 123 123 123 123 123 123 123 123 123 39 38 123 123 123 31 123 123 19 123 41 20 26 16 123 123 123 20 123 19 11 47 16 123
123 123 30 123 123 123 20 123 123 33 18 123 123 123 123 123 123 123 123 123 123 38 123 36 61 123 36 14 123 123 123 123 123 123 123 123 123 123 123 7 4 123 123 123 123 123 123 24 15 123 15 123 123 0 26 123 123 123 9 123 123 123 9 123 123 123 16 30 123 123 123 123 123 123 123 123 123 123 8 123 123 123 123 18 123 123 123 123 123 13 123 123 123 123 123 123 123 123
26 123 25 23 38 123 32 123 123 36 8 123 123 123 123 29 28 123 123 123 123 33 123 25 53 123 12 33 123 123 47 123 13 12 18 123 25 123 123 22 24 123 9 123 123 123 123 123 123 7 12 123 123 26 0 123 29 123 123 123 34 123 19 123 123 123 10 12 123 31 123 123 123 35 26 123 123 12 34 40 24 123 123 43 123 123 123 123 123 39 26 123 24 123 123 123 123 123
21 123 123 123 123 123 22 49 123 8 33 19 123 123 16 12 42 123 123 123 21 123 123 123 123 14 123 52 123 123 123 123 123 28 123 123 123 123 123 123 35 29 123 123 123 123 123 18 41 32 123 123 123 123 123 0 123 123 123 123 123 123 31 27 123 22 123 25 123 23 123 17 123 123 123 123 28 123 123 123 39 11 123 41 123 123 123 123 35 42 123 123 123 123 123 123 123 123
40 33 123 7 123 5 123 123 25 123 123 123 123 123 123 123 22 123 18 123 123 123 123 31 123 123 19 123 123 123 123 18 16 31 18 9 14 123 21 123 123 123 20 123 123 20 123 123 123 29 123 123 123 123 29 123 0 123 123 123 13 28 123 123 123 123 123 123 21 42 7 123 123 16 30 3 123 17 123 123 23 123 123 123 12 21 17 29 45 123 123 33 16 123 123 28 23 123
123 123 30 123 14 123 123 123 123 123 123 123 18 123 123 123 123 123 123 123 123 23 13 26 6 123 123 53 15 32 6 29 123 123 33 33 31 66 123 54 123 123 123 123 12 23 123 123 123 123 123 123 22 123 123 123 123 0 123 123 123 123 123 123 123 123 123 123 123 123 123 123 123 123 25 123 123 123 63 11 123 123 16 77 123 33 123 34 123 71 25 40 123 10 12 123 25 123
123 123 37 123 123 123 21 123 123 35 27 123 123 123 123 123 123 123 123 123 63 44 123 123 67 123 123 15 123 123 123 123 123 123 123 123 123 123 123 14 11 123 123 123 123 123 123 25 7 123 23 123 123 9 123 123 123 123 0 123 123 123 17 69 123 123 25 38 123 123 123 123 123 123 123 123 123 123 4 123 123 123 123 11 123 123 123 123 123 5 123 123 123 123 123 123 123 123
123 14 123 123 123 123 123 62 28 123 123 123 80 4 123 123 42 9 44 31 123 123 90 123 123 123 123 123 123 123 123 123 123 123 123 123 123 30 33 123 123 123 123 45 123 123 44 123 123 123 123 10 71 123 123 123 123 123 123 0 35 35 123 123 33 123 123 123 27 123 123 123 22 33 123 44 123 123 123 123 123 123 123 123 35 123 123 55 123 123 123 53 123 87 79 24 123 123
36 21 123 19 123 17 123 123 12 123 123 123 123 32 123 123 15 123 23 26 123 123 123 123 123 123 28 123 123 123 123 28 24 32 29 22 26 38 20 123 123 123 25 123 123 32 123 123 123 32 123 123 123 123 34 123 13 123 123 35 0 17 123 123 123 123 123 123 9 37 19 123 28 3 123 12 123 25 123 123 18 123 123 123 11 30 24 36 36 123 123 38 12 123 123 22 33 123
26 22 123 32 123 123 123 45 9 123 123 123 123 31 36 34 9 123 123 11 123 123 123 123 123 34 123 123 123 123 123 123 32 29 123 123 123 123 123 123 123 23 30 34 123 123 25 123 123 123 123 37 123 123 123 123 28 123 123 35 17 0 123 123 30 43 123 123 14 24 123 36 18 14 123 123 25 32 123 123 13 123 123 123 28 123 123 123 20 123 123 123 15 123 123 34 123 16
33 123 31 123 123 123 16 123 123 27 11 49 123 123 123 31 123 123 123 123 52 39 123 35 62 37 30 21 123 123 123 123 123 24 123 123 123 123 123 10 6 123 28 123 123 123 123 20 21 22 8 123 123 9 19 31 123 123 17 123 123 123 0 58 123 123 10 21 123 39 123 123 123 123 123 123 123 123 17 123 40 40 123 24 123 123 123 123 123 20 123 123 123 123 123 123 123 123
123 123 82 123 123 123 49 26 123 34 123 9 123 123 19 29 123 123 123 47 6 91 123 123 111 123 123 79 123 123 123 123 123 123 123 123 123 123 123 68 62 27 123 39 123 123 35 45 68 123 123 75 123 123 123 27 123 123 69 123 123 123 58 0 49 7 123 46 123 30 123 17 123 123 123 123 24 123 72 123 123 18 123 68 123 123 123 123 30 70 123 123 123 123 123 123 123 36
123 32 123 123 123 123 123 29 32 123 123 123 123 30 46 123 39 37 123 19 123 123 123 123 123 123 123 123 123 123 123 123 123 123 123 123 123 62 123 123 123 33 123 13 123 123 16 123 123 123 123 27 123 123 123 123 123 123 123 33 123 30 123 49 0 47 123 123 37 41 123 45 17 41 123 123 34 123 123 123 123 123 123 123 123 123 123 123 27 123 123 123 123 123 123 50 123 22
26 123 123 123 123 123 44 28 123 29 123 6 123 123 11 22 43 123 123 42 5 123 123 123 123 16 123 73 123 123 123 123 123 123 123 123 123 123 123 123 123 21 123 37 123 123 32 40 63 123 123 71 123 123 123 22 123 123 123 123 123 43 123 7 47 0 123 38 123 22 123 9 123 123 123 123 18 123 123 123 42 12 123 63 123 123 123 123 25 64 123 123 123 123 123 123 123 30
31 123 23 123 39 123 25 123 123 33 4 123 123 123 123 32 123 123 123 123 123 32 123 26 54 123 20 23 123 123 48 123 22 19 25 123 123 123 123 12 14 123 19 123 123 123 123 123 30 15 2 123 123 16 10 123 123 123 25 123 123 123 10 123 123 123 0 17 123 123 123 123 123 123 27 123 123 22 23 41 33 123 123 33 123 123 123 123 123 29 27 123 35 123 123 123 123 123
14 123 37 123 123 123 28 123 123 27 13 39 123 123 27 17 24 123 123 123 41 123 123 123 123 23 23 40 123 123 123 123 123 4 123 123 123 123 123 28 27 29 15 123 123 123 123 28 41 7 17 123 123 30 12 25 123 123 38 123 123 123 21 46 123 38 17 0 123 20 123 29 123 123 123 123 30 21 38 123 20 29 123 43 123 123 123 123 33 41 123 123 24 123 123 123 123 123
123 13 123 28 123 26 123 123 6 123 123 123 63 24 123 123 17 35 28 20 123 123 123 123 123 123 123 123 123 123 123 35 33 123 123 30 123 35 21 123 123 123 33 123 123 123 37 123 123 123 123 33 123 123 123 123 21 123 123 27 9 14 123 123 37 123 123 123 0 38 123 123 20 7 123 21 123 33 123 123 21 123 123 123 15 36 30 41 34 123 123 42 17 123 123 20 123 30
6 47 123 42 123 123 39 38 33 29 33 25 123 123 12 11 22 123 123 28 26 123 123 123 123 10 38 123 123 123 123 123 36 19 123 123 123 123 123 123 123 10 30 37 123 123 27 37 123 25 123 123 123 123 31 23 42 123 123 123 37 24 39 30 41 22 123 20 38 0 123 14 38 35 123 123 10 35 123 123 20 18 123 57 123 123 123 123 14 123 123 123 27 123 123 123 123 19
123 123 123 1 32 2 123 123 123 123 123 123 123 123 123 123 25 123 23 123 123 123 123 24 123 123 12 123 23 123 123 18 11 123 11 6 8 123 123 123 123 123 16 123 27 16 123 123 123 123 123 123 123 123 123 123 7 123 123 123 19 123 123 123 123 123 123 123 123 123 0 123 123 21 23 9 123 12 123 123 24 123 23 123 19 23 21 123 123 123 24 123 18 123 123 123 22 123
17 123 123 123 123 123 38 32 123 25 123 11 123 123 2 13 35 123 123 37 13 123 123 123 123 7 123 123 123 123 123 123 123 123 123 123 123 123 123 123 123 15 123 38 123 123 30 35 123 123 123 123 123 123 123 17 123 123 123 123 123 36 123 17 45 9 123 29 123 14 123 0 123 123 123 123 13 123 123 123 34 7 123 58 123 123 123 123 20 123 123 123 123 123 123 123 123 26
123 16 123 123 123 123 123 42 16 123 123 123 123 18 123 123 27 29 123 10 123 123 123 123 123 123 123 123 123 123 123 123 123 123 123 123 123 46 39 123 123 123 123 27 123 123 22 123 123 123 123 21 123 123 123 123 123 123 123 22 28 18 123 123 17 123 123 123 20 38 123 123 0 25 123 123 34 123 123 123 31 123 123 123 35 123 123 123 27 123 123 123 32 123 123 33 123 21
34 19 123 22 123 20 123 123 9 123 123 123 123 30 47 43 13 123 26 23 123 123 123 123 123 45 29 123 123 123 123 31 26 31 32 25 29 39 22 123 123 36 26 123 123 123 39 123 123 32 123 40 123 123 35 123 16 123 123 33 3 14 123 123 41 123 123 123 7 35 21 123 25 0 123 16 38 26 123 123 16 123 123 123 13 123 28 123 33 123 123 123 11 123 123 23 123 31
123 123 9 23 12 25 123 123 123 123 123 123 123 123 123 123 123 123 123 123 123 10 123 1 27 123 18 33 15 38 21 29 22 123 13 23 16 123 123 31 123 123 26 123 14 17 123 123 123 123 123 123 39 123 26 123 30 25 123 123 123 123 123 123 123 123 27 123 123 123 23 123 123 123 0 32 123 22 123 14 123 123 20 123 123 35 36 123 123 123 1 123 38 34 33 123 29 123
123 31 123 10 123 7 123 123 25 123 123 123 45 123 123 123 24 123 16 123 123 123 123 123 123 123 123 123 28 25 123 16 19 123 20 10 15 38 18 123 123 123 23 123 123 20 123 123 123 123 123 123 38 123 123 123 3 123 123 44 12 123 123 123 123 123 123 123 21 123 9 123 123 16 32 0 123 20 123 123 25 123 26 123 10 19 15 27 123 123 123 30 18 123 123 26 21 123
16 123 123 123 123 123 123 28 34 35 123 22 123 123 13 19 26 123 123 25 23 123 123 123 123 14 123 123 123 123 123 123 123 29 123 123 123 123 123 123 123 2 39 28 123 123 19 123 123 123 123 55 123 123 123 28 123 123 123 123 123 25 123 24 34 18 123 30 123 10 123 13 34 38 123 123 0 123 123 123 26 20 123 66 123 123 123 123 7 123 123 123 33 123 123 123 123 13
31 123 25 11 123 14 123 123 33 123 20 123 123 123 123 123 23 123 123 123 123 31 123 22 123 123 4 41 123 123 123 123 1 18 10 123 14 123 123 32 123 123 6 123 123 123 123 123 123 14 123 123 123 123 12 123 17 123 123 123 25 32 123 123 123 123 22 21 33 35 12 123 123 26 22 20 123 0 123 123 20 123 123 123 29 123 123 123 43 123 22 123 17 123 123 123 123 123
123 123 34 123 49 123 23 123 123 38 26 123 123 123 123 123 123 123 123 123 66 41 76 40 63 123 42 11 123 123 58 123 123 123 123 123 123 123 123 12 11 123 123 123 123 123 123 28 11 123 22 123 123 8 34 123 123 63 4 123 123 123 17 72 123 123 23 38 123 123 123 123 123 123 123 123 123 123 0 52 123 123 123 14 123 123 123 123 123 8 41 123 123 73 123 123 123 123
123 123 19 123 3 123 123 123 123 123 123 123 123 123 123 123 123 123 123 123 123 11 24 15 13 123 31 42 12 123 7 123 123 123 26 123 25 123 123 42 123 123 123 123 8 20 123 123 123 123 123 123 31 123 40 123 123 11 123 123 123 123 123 123 123 123 41 123 123 123 123 123 123 123 14 123 123 123 52 0 123 123 17 66 123 123 123 123 123 60 14 123 123 21 22 123 28 123
18 33 45 24 123 24 47 51 19 43 30 123 123 123 32 27 4 123 123 23 123 123 123 42 123 29 24 123 123 123 123 123 21 16 29 123 31 123 123 123 123 24 17 123 123 123 34 123 123 19 123 123 123 123 24 39 23 123 123 123 18 13 40 123 123 42 33 20 21 20 24 34 31 16 123 25 26 20 123 123 0 37 123 123 28 123 123 123 24 123 123 123 7 123 123 123 123 24
19 123 123 123 123 123 32 38 123 18 39 10 123 123 7 12 40 123 123 123 12 123 123 123 123 8 123 123 123 123 123 123 123 30 123 123 123 123 123 123 123 21 123 123 123 123 37 29 123 35 123 123 123 123 123 11 123 123 123 123 123 123 40 18 123 12 123 29 123 18 123 7 123 123 123 123 20 123 123 123 37 0 123 52 123 123 123 123 27 123 123 123 123 123 123 123 123 123
123 123 123 23 17 23 123 123 123 123 123 123 22 123 123 123 123 123 26 123 123 25 26 21 22 123 123 53 5 20 18 14 123 123 22 18 17 52 36 123 123 123 123 123 9 8 123 123 123 123 123 123 19 123 123 123 123 16 123 123 123 123 123 123 123 123 123 123 123 123 23 123 123 123 20 26 123 123 123 17 123 123 0 123 123 18 22 22 123 123 20 29 123 22 17 123 11 123
52 123 48 123 64 123 19 90 123 34 35 59 123 123 123 47 123 123 123 123 62 55 90 54 78 52 53 25 123 123 72 123 123 47 123 123 123 123 123 25 19 123 123 94 123 123 84 23 3 45 32 123 123 18 43 41 123 77 11 123 123 123 24 68 123 63 33 43 123 57 123 58 123 123 123 123 66 123 14 66 123 52 123 0 123 123 123 123 123 6 55 123 123 87 123 123 123 123
123 23 123 20 123 17 123 123 21 123 123 123 48 33 123 123 26 43 13 35 123 123 123 123 123 123 123 123 123 26 123 21 28 123 123 19 25 29 10 123 123 123 32 123 123 28 123 123 123 123 123 44 41 123 123 123 12 123 123 35 11 28 123 123 123 123 123 123 15 123 19 123 35 13 123 10 123 29 123 123 28 123 123 123 0 21 15 26 123 123 123 28 21 123 123 16 26 123
123 123 123 123 123 22 123 123 123 123 123 123 28 123 123 123 123 123 9 123 123 123 123 123 123 123 123 123 23 6 123 6 123 123 123 18 23 34 19 123 123 123 123 123 27 18 123 123 123 123 123 123 20 123 123 123 21 33 123 123 30 123 123 123 123 123 123 123 36 123 23 123 123 123 35 19 123 123 123 123 123 123 18 123 21 0 5 8 123 123 123 13 123 123 27 29 7 123
123 123 123 21 123 19 123 123 123 123 123 123 33 123 123 123 123 123 4 123 123 123 123 123 123 123 123 123 26 11 123 8 123 123 123 16 22 31 14 123 123 123 123 123 123 19 123 123 123 123 123 123 26 123 123 123 17 123 123 123 24 123 123 123 123 123 123 123 30 123 21 123 123 28 36 15 123 123 123 123 123 123 22 123 15 5 0 12 123 123 123 16 32 123 123 24 12 123
123 123 123 123 123 29 123 123 123 123 123 123 25 123 123 123 123 60 13 123 123 123 36 123 123 123 123 123 28 3 123 13 123 123 123 25 123 32 22 123 123 123 123 123 31 24 123 123 123 123 123 123 16 123 123 123 29 34 123 55 36 123 123 123 123 123 123 123 41 123 123 123 123 123 123 27 123 123 123 123 123 123 22 123 26 8 12 0 123 123 123 7 123 34 26 31 12 123
19 39 123 47 123 123 123 28 28 42 123 29 123 123 20 24 23 123 123 18 30 123 123 123 123 21 123 123 123 123 123 123 44 31 123 123 123 123 123 123 123 5 39 24 123 123 13 123 123 123 123 48 123 123 123 35 45 123 123 123 36 20 123 30 27 25 123 33 34 14 123 20 27 33 123 123 7 43 123 123 24 27 123 123 123 123 123 123 0 123 123 123 30 123 123 123 123 6
123 123 41 123 57 123 21 91 123 36 123 61 123 123 123 47 123 123 123 123 64 48 83 48 71 123 49 19 123 123 66 123 123 123 123 123 123 123 123 19 15 123 123 123 123 123 123 25 3 123 28 123 123 13 39 42 123 71 5 123 123 123 20 70 123 64 29 41 123 123 123 123 123 123 123 123 123 123 8 60 123 123 123 6 123 123 123 123 123 0 49 123 123 81 123 123 123 123
123 123 8 23 12 123 123 123 123 123 123 123 123 123 123 123 123 123 123 123 123 10 38 1 27 123 18 33 15 123 21 29 22 123 13 23 17 123 123 30 123 123 27 123 14 17 123 123 123 123 123 123 123 123 26 123 123 25 123 123 123 123 123 123 123 123 27 123 123 123 24 123 123 123 1 123 123 22 41 14 123 123 20 55 123 123 123 123 123 49 0 123 123 34 123 123 29 123
123 46 123 123 123 34 123 123 123 123 123 123 29 53 123 123 123 57 15 123 123 123 40 123 45 123 123 123 34 9 123 19 123 123 123 31 123 27 21 123 123 123 123 123 38 30 123 123 123 123 123 62 20 123 123 123 33 40 123 53 38 123 123 123 123 123 123 123 42 123 123 123 123 123 123 30 123 123 123 123 123 123 29 123 28 13 16 7 123 123 123 0 123 39 31 29 18 123
25 30 43 18 123 18 123 123 17 123 32 123 123 123 39 34 7 123 32 26 123 123 123 38 123 36 21 123 123 123 123 33 17 20 25 23 25 123 31 123 123 31 16 123 123 33 39 123 123 21 123 123 123 123 24 123 16 123 123 123 12 15 123 123 123 123 35 24 17 27 18 123 32 11 38 18 33 17 123 123 7 123 123 123 21 123 32 123 30 123 123 123 0 123 123 34 123 29
123 123 40 123 24 123 123 123 123 123 123 123 12 123 123 123 123 93 44 123 123 32 3 36 10 123 123 62 23 32 15 123 123 123 123 123 123 66 54 64 123 123 123 123 21 30 123 123 123 123 123 123 19 123 123 123 123 10 123 87 123 123 123 123 123 123 123 123 123 123 123 123 123 123 34 123 123 123 73 21 123 123 22 87 123 123 123 34 123 81 34 39 123 0 8 64 29 123
123 123 123 123 24 123 123 123 123 123 123 123 7 123 123 123 123 85 35 123 123 33 11 123 15 123 123 63 19 24 18 26 123 123 123 34 33 58 46 123 123 123 123 123 19 24 123 123 123 123 123 123 11 123 123 123 123 12 123 79 123 123 123 123 123 123 123 123 123 123 123 123 123 123 33 123 123 123 123 22 123 123 17 123 123 27 123 26 123 123 123 31 123 8 0 55 21 123
123 17 123 123 123 33 123 123 25 123 123 123 56 24 123 123 36 30 20 38 123 123 66 123 123 123 123 123 123 123 123 32 123 123 123 34 123 16 10 123 123 123 123 60 123 123 123 123 123 123 123 33 47 123 123 123 28 123 123 24 22 34 123 123 50 123 123 123 20 123 123 123 33 23 123 26 123 123 123 123 123 123 123 123 16 29 24 31 123 123 123 29 34 64 55 0 123 123
123 123 123 23 28 21 123 123 123 123 123 123 23 123 123 123 123 123 16 123 123 123 31 30 31 123 123 123 16 9 29 5 123 123 26 16 19 41 26 123 123 123 123 123 20 12 123 123 123 123 123 123 16 123 123 123 23 25 123 123 33 123 123 123 123 123 123 123 123 123 22 123 123 123 29 21 123 123 123 28 123 123 11 123 26 7 12 12 123 123 29 18 123 29 21 123 0 123
24 34 123 123 123 123 123 28 24 123 123 123 123 39 26 30 22 123 123 12 123 123 123 123 123 27 123 123 123 123 123 123 123 123 123 123 123 123 123 123 123 11 123 21 123 123 10 123 123 123 123 42 123 123 123 123 123 123 123 123 123 16 123 36 22 30 123 123 30 19 123 26 21 31 123 123 13 123 123 123 24 123 123 123 123 123 123 123 6 123 123 123 29 123 123 123 123 0
EOF
